set R := 
elec
water_source
water_pumped
water_treated
water_boiled
water_domestic
water_livestock
water_human
heat
water_waste
water_elevated
water_hydroGen ;

set P := 
hydroElec
waterTreatment
pump
boil
domestic
transfer
elevation ;

set contam_P := waterTreatment ;
set contam_R := elec ;

set head_P := pump ;
set head_R_out := water_pumped ;
set head_R_in := elec ;

param: imports_min imports_max :=
elec 0 4
water_source 1200000 1600000
heat 2500 3500 ;

param demand :=
water_domestic 150000
water_livestock 450000
water_human 600000 ;

param cost_resource :=
elec 1.94
water_source 0.01
heat  1.94 ;

#import kTab.csv format=array: prod_coeff ;

param prod_coeff :=
elec hydroElec 1
elec waterTreatment -2.5E-06
elec pump -1E-05
water_source waterTreatment -1.125
water_source transfer -1
water_source elevation -1
water_pumped pump 1
water_pumped boil -1
water_pumped domestic -0.8
water_treated waterTreatment 1
water_treated pump -4
water_boiled boil 1
water_boiled domestic -0.533333
water_domestic domestic 1
water_livestock transfer 1
water_human boil 7.5
heat boil -0.0375
water_waste waterTreatment 0.3125
water_waste domestic 0.33333
water_elevated hydroElec -75000 
water_elevated elevation 1
water_hydroGen hydroElec 75000
water_hydroGen waterTreatment -0.1875 ;


param: process_number_min process_number_max :=
hydroElec 0.5 105
waterTreatment 15 25
pump 105 106
boil 105 106
domestic 105 106
transfer 1 2
elevation 1 2 ;

param process_rate :=
hydroElec  2
waterTreatment  40000
pump  1904.76
boil  761.9
domestic  1428.6
transfer  450000
elevation  150000 ;

param contam_min :=
waterTreatment 0.9 ;

param contam_in :=
waterTreatment  0.5 ; 

